
  22    0


   0  12 2 3 4 5 6 9 10 17 18 19 20 21 
   5   3 16 12 7 
  10   3 15 13 12 
   3   3 13 12 11 
   6   2 14 8 
   1   1 7 
   8   1 11 
   3   1 11 
   9   1 12 
   7   1 11 
   9   1 22
   3   1 22
   2   1 22
   2   1 22
   7   1 22
   5   1 22
   4   1 22
   2   1 22
   4   1 22
   9   1 22
   3   1 22
   0   0 
